2 20
233 178 
0 101 91 19 9 23 82 2
1 63 53 48 38 42 5 1
2 105 95 40 30 38 95 2
3 92 82 100 90 82 72 1
4 103 93 74 64 2 23 2
5 25 15 34 24 16 85 1
6 100 90 55 45 89 12 1
7 85 75 62 52 97 38 1
8 17 7 68 58 67 85 1
9 15 5 83 73 20 66 2
10 27 17 73 63 85 84 1
11 110 100 19 9 40 7 2
12 26 16 53 43 14 59 2
13 71 61 19 9 50 22 1
14 81 71 27 17 68 40 1
15 81 71 13 3 91 61 2
16 102 92 69 59 34 89 1
17 24 14 76 66 74 28 2
18 43 33 98 88 78 9 1
19 96 86 64 54 19 55 1
